DIMENSION: 16
EDGE_WEIGHT_TYPE: EXPLICIT
EDGE_WEIGHT_FORMAT: FULL_MATRIX
EDGE_WEIGHT_SECTION:
32767 32767 32767 32767 32767 32767 32767 32767 36 32767 32767 46 32767 32767 52 32767 
32767 32767 32767 81 32767 32767 32767 32767 7 32767 32767 32767 32767 56 78 43 
32767 32767 32767 32767 32767 32767 32767 32767 32767 5 32767 32767 93 44 32767 32767 
32767 81 32767 32767 32767 32767 32767 32767 53 85 32767 32767 32767 32767 54 32767 
32767 32767 32767 32767 32767 32767 66 1 32767 32767 32767 96 32767 32767 8 32767 
32767 32767 32767 32767 32767 32767 38 32767 32767 83 32767 32767 48 32767 32767 90 
32767 32767 32767 32767 66 38 32767 73 32767 38 32767 32767 32767 32767 32767 32767 
32767 32767 32767 32767 1 32767 73 32767 69 32767 32767 32767 16 32767 32767 68 
36 7 32767 53 32767 32767 32767 69 32767 52 32767 32767 32767 32767 32767 32767 
32767 32767 5 85 32767 83 38 32767 52 32767 32767 11 23 32767 19 32767 
32767 32767 32767 32767 32767 32767 32767 32767 32767 32767 32767 32767 32767 32767 32767 32767 
46 32767 32767 32767 96 32767 32767 32767 32767 11 32767 32767 32767 70 32767 32767 
32767 32767 93 32767 32767 48 32767 16 32767 23 32767 32767 32767 32767 10 32767 
32767 56 44 32767 32767 32767 32767 32767 32767 32767 32767 70 32767 32767 13 29 
52 78 32767 54 8 32767 32767 32767 32767 19 32767 32767 10 13 32767 32767 
32767 43 32767 32767 32767 90 32767 68 32767 32767 32767 32767 32767 29 32767 32767 
EOF